*Heading
** Job name: tension_x Model name: tension
** Generated by: Abaqus/CAE 2020
*Preprint, echo=NO, model=NO, history=NO, contact=NO
**
** PARTS
**
*Part, name=PART-1
*Node
      1,          0.5,          0.5,           1.
      2,          0.5,         -0.5,           1.
      3,          0.5,          0.5,           0.
      4,          0.5,         -0.5,           0.
      5,         -0.5,          0.5,           1.
      6,         -0.5,         -0.5,           1.
      7,         -0.5,          0.5,           0.
      8,         -0.5,         -0.5,           0.
*Element, type=C3D8R
1, 5, 6, 8, 7, 1, 2, 4, 3
*Nset, nset=_PICKEDSET8, internal, generate
 1,  8,  1
*Elset, elset=_PICKEDSET8, internal
 1,
** Section: Section-1-_PICKEDSET8
*Solid Section, elset=_PICKEDSET8, controls=EC-1, material=MATERIAL-1
,
*End Part
**  
**
** ASSEMBLY
**
*Assembly, name=Assembly
**  
*Instance, name=PART-1-1, part=PART-1
*End Instance
**  
*Nset, nset=DISPX, instance=PART-1-1, generate
 1,  4,  1
*Nset, nset=DISPY, instance=PART-1-1, generate
 1,  7,  2
*Nset, nset=DISPZ, instance=PART-1-1
 1, 2, 5, 6
*Nset, nset=FIXEDCORNER, instance=PART-1-1
 8,
*Nset, nset=FIXEDX, instance=PART-1-1, generate
 5,  8,  1
*Nset, nset=FIXEDY, instance=PART-1-1, generate
 2,  8,  2
*Nset, nset=FIXEDZ, instance=PART-1-1
 3, 4, 7, 8
*End Assembly
** 
** ELEMENT CONTROLS
** 
*Section Controls, name=EC-1, hourglass=ENHANCED
1., 1., 1.
*Amplitude, name=AMP-1
             0.,              0.,              1.,            0.05
** 
** MATERIALS
** 
*Material, name=MATERIAL-1
*Depvar
923,
*User Material, constants=16
1.,     2.,108200., 61300., 28500.,     0.,     0.,    73.
   0.05,     1.,   20.4,    3.7,   30.8,     0.,  5e+10,    3.7
** 
** BOUNDARY CONDITIONS
** 
** Name: Disp-BC-1 Type: Displacement/Rotation
*Boundary
FIXEDCORNER, 1, 1
** Name: Disp-BC-2 Type: Displacement/Rotation
*Boundary
FIXEDCORNER, 2, 2
** Name: Disp-BC-3 Type: Displacement/Rotation
*Boundary
FIXEDCORNER, 3, 3
** Name: Disp-BC-4 Type: Displacement/Rotation
*Boundary
FIXEDX, 1, 1
** Name: Disp-BC-5 Type: Displacement/Rotation
*Boundary
FIXEDY, 2, 2
** Name: Disp-BC-6 Type: Displacement/Rotation
*Boundary
FIXEDZ, 3, 3
** ----------------------------------------------------------------
** 
** STEP: Step-1
** 
*Step, name=Step-1, nlgeom=NO, inc=1000000
*Static
0.0001, 1., 1e-06, 0.2
** 
** BOUNDARY CONDITIONS
** 
** Name: Disp-BC-7 Type: Displacement/Rotation
*Boundary, amplitude=AMP-1
DISPX, 1, 1, 1.
** 
** OUTPUT REQUESTS
** 
*Restart, write, frequency=0
** 
** FIELD OUTPUT: F-Output-1
** 
*Output, field
*Contact Output
CDISP, CSTRESS
** 
** FIELD OUTPUT: F-Output-2
** 
*Node Output
CF, RF, U
** 
** FIELD OUTPUT: F-Output-3
** 
*Element Output, directions=YES
E, EE, EEQUT, ER, IE, LE, NE, PE, PEEQ, PEEQMAX, PEEQT, PEMAG, PEQC, SALPHA, SE, SEE
SEP, SEPE, SPE, TE, TEEQ, TEVOL, THE, VE, VEEQ
** 
** FIELD OUTPUT: F-Output-4
** 
*Element Output, directions=YES
S, 
** 
** FIELD OUTPUT: F-Output-5
** 
*Element Output, directions=YES
SDV, 
*Output, history, frequency=0
*End Step
